========================================================== 
File name: C:\DEGR\assets\definitions\MSRCPSP_Gen\100_20_64_10_C.def
Creation date: Wed May 03 10:39:02 CEST 2023
Website: http://imopse.ii.pwr.edu.pl/ 
Reference: 
Myszkowski P. B., Skowronski M. E., Olech L., Oslizlo K., 
Hybrid Ant Colony Optimization in solving Multi-Skill Resource-Constrained Project Scheduling Problem, 
Soft Computing, DOI: DOI 10.1007/s00500-014-1455-x 
========================================================== 
General characteristics: 
Tasks: 100
Resources: 20
Precedence relations: 62
Number of skill types: 10
========================================================== 
ResourceID 	 Salary 	 Skills 
1	 	 	33.0	 	 Q3: 2 	  Q6: 0 	  Q5: 0 	  Q2: 3 	  Q9: 2 	  Q1: 2 	  Q8: 3 	  Q0: 1 	  Q4: 1 	 
2	 	 	26.8	 	 Q3: 0 	  Q1: 0 	  Q2: 1 	  Q6: 1 	  Q8: 3 	  Q0: 3 	  Q4: 0 	  Q7: 2 	 
3	 	 	30.0	 	 Q4: 1 	  Q6: 2 	  Q5: 2 	  Q8: 1 	 
4	 	 	78.9	 	 Q7: 0 	  Q0: 3 	  Q8: 2 	  Q4: 0 	  Q5: 1 	  Q9: 1 	  Q1: 2 	  Q3: 2 	  Q2: 3 	 
5	 	 	30.1	 	 Q8: 2 	  Q9: 0 	  Q7: 3 	  Q5: 1 	  Q4: 0 	  Q6: 3 	 
6	 	 	62.8	 	 Q7: 1 	  Q1: 3 	  Q5: 2 	  Q0: 1 	  Q2: 0 	  Q4: 3 	  Q6: 2 	 
7	 	 	99.0	 	 Q9: 1 	  Q8: 0 	 
8	 	 	41.1	 	 Q5: 0 	  Q6: 1 	  Q3: 0 	  Q9: 0 	  Q7: 3 	  Q2: 3 	 
9	 	 	38.0	 	 Q5: 1 	  Q9: 2 	  Q2: 0 	  Q7: 1 	  Q6: 1 	 
10	 	 	97.9	 	 Q1: 0 	 
11	 	 	40.9	 	 Q2: 3 	  Q9: 0 	  Q0: 1 	 
12	 	 	36.1	 	 Q7: 2 	  Q9: 1 	  Q1: 2 	  Q3: 1 	  Q8: 2 	  Q5: 0 	 
13	 	 	94.8	 	 Q7: 3 	  Q0: 0 	  Q4: 2 	  Q8: 0 	  Q2: 1 	  Q9: 1 	 
14	 	 	28.2	 	 Q8: 3 	  Q7: 0 	  Q9: 3 	 
15	 	 	23.8	 	 Q2: 2 	  Q4: 2 	  Q0: 2 	  Q6: 1 	  Q7: 1 	  Q5: 1 	 
16	 	 	50.5	 	 Q9: 0 	  Q0: 2 	  Q2: 2 	  Q6: 1 	  Q4: 2 	 
17	 	 	19.4	 	 Q3: 2 	  Q7: 3 	 
18	 	 	87.7	 	 Q6: 3 	  Q0: 1 	  Q9: 1 	  Q1: 3 	  Q5: 0 	  Q7: 3 	  Q8: 1 	 
19	 	 	19.8	 	 Q9: 3 	  Q1: 0 	  Q6: 1 	  Q0: 1 	 
20	 	 	79.7	 	 Q9: 0 	  Q1: 1 	 
========================================================== 
TaskID 	 Duration 	 Skill 	 Predecessor IDs 
1	9	Q2:	2
2	34	Q6:	1
3	40	Q6:	0
4	34	Q4:	0
5	23	Q8:	1
6	37	Q1:	1
7	29	Q1:	3
8	9	Q6:	1
9	30	Q0:	2
10	34	Q6:	3
11	15	Q1:	0
12	18	Q1:	2
13	16	Q3:	0
14	12	Q8:	2
15	22	Q1:	3	14
16	18	Q7:	3
17	17	Q3:	0
18	9	Q6:	2
19	17	Q9:	2
20	10	Q2:	0
21	33	Q2:	3
22	19	Q3:	1
23	12	Q2:	2
24	14	Q7:	0
25	24	Q8:	3
26	14	Q8:	3
27	12	Q1:	3
28	24	Q9:	0	3
29	25	Q8:	2
30	15	Q5:	1
31	17	Q9:	0
32	35	Q3:	2	5
33	31	Q2:	0
34	20	Q8:	3
35	13	Q1:	1	27
36	40	Q6:	2
37	36	Q2:	3
38	13	Q2:	1
39	13	Q6:	1
40	34	Q9:	3
41	30	Q2:	3	33
42	16	Q2:	2
43	29	Q3:	2	37
44	12	Q0:	3
45	20	Q6:	1	32
46	31	Q9:	2	36
47	18	Q2:	3
48	36	Q0:	1
49	39	Q2:	1
50	36	Q9:	1	43
51	34	Q9:	3
52	34	Q8:	2
53	15	Q4:	2
54	22	Q9:	2	9
55	9	Q6:	1
56	17	Q8:	2	11
57	16	Q4:	0	41	51
58	9	Q1:	3	37	38
59	13	Q3:	1
60	21	Q0:	2
61	21	Q8:	2
62	30	Q7:	3	12	22
63	14	Q6:	3	48
64	30	Q2:	0
65	11	Q7:	2	10
66	23	Q9:	1
67	21	Q3:	1
68	33	Q9:	1	7	8	18
69	10	Q7:	0	15	23	1
70	36	Q2:	0	19	26
71	16	Q2:	3	20
72	13	Q2:	1
73	31	Q4:	2	38
74	11	Q2:	3	69
75	12	Q5:	1
76	39	Q2:	3	16	43	34
77	36	Q1:	3
78	34	Q1:	1	74	9
79	17	Q6:	2	73
80	34	Q7:	1
81	33	Q5:	2	10	67	39	52
82	9	Q0:	1	19
83	34	Q0:	3	77	22	40
84	38	Q8:	2
85	26	Q3:	0	83
86	16	Q3:	1	27	10	45
87	12	Q7:	2	66
88	26	Q4:	3
89	34	Q7:	0	67	75
90	16	Q3:	2	33
91	36	Q2:	3	26
92	27	Q9:	0
93	9	Q7:	2
94	33	Q8:	2	18
95	13	Q7:	2	90
96	35	Q5:	1
97	9	Q1:	3	14	75	91	89
98	12	Q9:	3	94
99	38	Q4:	3	94
100	14	Q1:	2	14
========================================================== 